objective value:                                  -17
t_n_0                                               1 	(obj:-1)
t_n_129                                             1 	(obj:-1)
t_n_236                                             1 	(obj:-1)
t_n_269                                             1 	(obj:-1)
t_n_352                                             1 	(obj:-1)
t_n_405                                             1 	(obj:-1)
t_n_471                                             1 	(obj:-1)
t_n_524                                             1 	(obj:-1)
t_n_555                                             1 	(obj:-1)
t_n_568                                             1 	(obj:-1)
t_n_678                                             1 	(obj:-1)
t_n_717                                             1 	(obj:-1)
t_n_733                                             1 	(obj:-1)
t_n_744                                             1 	(obj:-1)
t_n_826                                             1 	(obj:-1)
t_n_864                                             1 	(obj:-1)
t_n_917                                             1 	(obj:-1)
